100
32
25
5
4
30
8
28
9
4
10
30
11
22
16
13
3
6
5
18
1
1
2
18
1
1
3
1
19
22
1
18
1
1
1
4
2
3
17
17
1
5
1
3
6
1
8
1
4
2
1
1
1
3
16
1
5
1
1
1
1
1
1
1
6
4
2
5
2
2
4
2
1
1
2
17
1
2
3
2
17
1
2
1
1
1
4
2
1
1
17
3
2
3
1
1
4
1
1
2
2
2